[VALIDATOR STDOUT]
Type-checking move
...action passes type checking.
Type-checking pick
...action passes type checking.
Type-checking drop
...action passes type checking.
Checking plan: /home/jfan5/Safety-gen/runs/benchmark/optic/grippers_20260205_142606/grippers/optic_results/grippers-n3-r27-o25-s25001.plan
Plan to validate:

Plan size: 101
1:
(pick robot2 ball3 room22 lgripper2)
 
2:
(pick robot2 ball10 room22 rgripper2)
 
3:
(move robot1 room9 room8)
 
4:
(move robot3 room27 room7)
 
5:
(move robot2 room22 room3)
 
6:
(pick robot3 ball16 room7 lgripper3)
 
7:
(move robot1 room8 room4)
 
8:
(drop robot2 ball3 room3 lgripper2)
 
9:
(move robot3 room7 room16)
 
10:
(pick robot1 ball2 room4 lgripper1)
 
11:
(move robot2 room3 room11)
 
12:
(drop robot3 ball16 room16 lgripper3)
 
13:
(move robot1 room4 room27)
 
14:
(drop robot2 ball10 room11 rgripper2)
 
15:
(move robot3 room16 room8)
 
16:
(drop robot1 ball2 room27 lgripper1)
 
17:
(pick robot2 ball5 room11 lgripper2)
 
18:
(move robot2 room11 room21)
 
19:
(move robot1 room27 room8)
 
20:
(move robot3 room8 room25)
 
21:
(drop robot2 ball5 room21 lgripper2)
 
22:
(pick robot2 ball19 room21 rgripper2)
 
23:
(pick robot3 ball22 room25 lgripper3)
 
24:
(move robot1 room8 room24)
 
25:
(move robot2 room21 room8)
 
26:
(move robot3 room25 room14)
 
27:
(pick robot1 ball4 room24 lgripper1)
 
28:
(drop robot2 ball19 room8 rgripper2)
 
29:
(drop robot3 ball22 room14 lgripper3)
 
30:
(move robot1 room24 room18)
 
31:
(move robot3 room14 room8)
 
32:
(pick robot1 ball17 room18 rgripper1)
 
33:
(move robot2 room8 room24)
 
34:
(move robot3 room8 room6)
 
35:
(move robot1 room18 room15)
 
36:
(pick robot2 ball18 room24 lgripper2)
 
37:
(drop robot1 ball4 room15 lgripper1)
 
38:
(drop robot1 ball17 room15 rgripper1)
 
39:
(move robot2 room24 room25)
 
40:
(move robot3 room6 room23)
 
41:
(drop robot2 ball18 room25 lgripper2)
 
42:
(pick robot1 ball15 room15 rgripper1)
 
43:
(pick robot3 ball21 room23 lgripper3)
 
44:
(pick robot3 ball14 room23 rgripper3)
 
45:
(move robot1 room15 room25)
 
46:
(move robot3 room23 room13)
 
47:
(move robot2 room25 room20)
 
48:
(drop robot1 ball15 room25 rgripper1)
 
49:
(pick robot2 ball8 room20 lgripper2)
 
50:
(drop robot3 ball21 room13 lgripper3)
 
51:
(move robot2 room20 room25)
 
52:
(move robot3 room13 room27)
 
53:
(move robot1 room25 room24)
 
54:
(drop robot2 ball8 room25 lgripper2)
 
55:
(drop robot3 ball14 room27 rgripper3)
 
56:
(move robot1 room24 room22)
 
57:
(move robot3 room27 room8)
 
58:
(move robot2 room25 room13)
 
59:
(move robot1 room22 room19)
 
60:
(pick robot2 ball24 room13 lgripper2)
 
61:
(pick robot1 ball6 room19 lgripper1)
 
62:
(pick robot1 ball13 room19 rgripper1)
 
63:
(move robot3 room8 room6)
 
64:
(move robot2 room13 room10)
 
65:
(move robot1 room19 room22)
 
66:
(move robot3 room6 room19)
 
67:
(drop robot2 ball24 room10 lgripper2)
 
68:
(drop robot1 ball13 room22 rgripper1)
 
69:
(pick robot2 ball9 room10 rgripper2)
 
70:
(pick robot3 ball20 room19 lgripper3)
 
71:
(move robot2 room10 room24)
 
72:
(move robot1 room22 room2)
 
73:
(move robot3 room19 room16)
 
74:
(drop robot2 ball9 room24 rgripper2)
 
75:
(drop robot1 ball6 room2 lgripper1)
 
76:
(move robot3 room16 room11)
 
77:
(drop robot3 ball20 room11 lgripper3)
 
78:
(pick robot3 ball25 room11 rgripper3)
 
79:
(move robot1 room2 room8)
 
80:
(move robot2 room24 room8)
 
81:
(move robot3 room11 room8)
 
82:
(move robot1 room8 room1)
 
83:
(move robot2 room8 room15)
 
84:
(drop robot3 ball25 room8 rgripper3)
 
85:
(pick robot1 ball12 room1 lgripper1)
 
86:
(pick robot1 ball1 room1 rgripper1)
 
87:
(pick robot2 ball11 room15 lgripper2)
 
88:
(move robot3 room8 room15)
 
89:
(move robot1 room1 room6)
 
90:
(move robot2 room15 room8)
 
91:
(drop robot1 ball1 room6 rgripper1)
 
92:
(drop robot2 ball11 room8 lgripper2)
 
93:
(move robot3 room15 room12)
 
94:
(move robot1 room6 room16)
 
95:
(pick robot3 ball7 room12 lgripper3)
 
96:
(pick robot3 ball23 room12 rgripper3)
 
97:
(drop robot1 ball12 room16 lgripper1)
 
98:
(move robot3 room12 room15)
 
99:
(drop robot3 ball7 room15 lgripper3)
 
100:
(move robot3 room15 room1)
 
101:
(drop robot3 ball23 room1 rgripper3)
 

Plan Validation details
-----------------------

Checking next happening (time 1)
Deleting (at ball3 room22)
Deleting (free robot2 lgripper2)
Adding (carry robot2 ball3 lgripper2)

Checking next happening (time 2)
Deleting (at ball10 room22)
Deleting (free robot2 rgripper2)
Adding (carry robot2 ball10 rgripper2)

Checking next happening (time 3)
Deleting (at-robby robot1 room9)
Adding (at-robby robot1 room8)

Checking next happening (time 4)
Deleting (at-robby robot3 room27)
Adding (at-robby robot3 room7)

Checking next happening (time 5)
Deleting (at-robby robot2 room22)
Adding (at-robby robot2 room3)

Checking next happening (time 6)
Deleting (at ball16 room7)
Deleting (free robot3 lgripper3)
Adding (carry robot3 ball16 lgripper3)

Checking next happening (time 7)
Deleting (at-robby robot1 room8)
Adding (at-robby robot1 room4)

Checking next happening (time 8)
Deleting (carry robot2 ball3 lgripper2)
Adding (at ball3 room3)
Adding (free robot2 lgripper2)

Checking next happening (time 9)
Deleting (at-robby robot3 room7)
Adding (at-robby robot3 room16)

Checking next happening (time 10)
Deleting (at ball2 room4)
Deleting (free robot1 lgripper1)
Adding (carry robot1 ball2 lgripper1)

Checking next happening (time 11)
Deleting (at-robby robot2 room3)
Adding (at-robby robot2 room11)

Checking next happening (time 12)
Deleting (carry robot3 ball16 lgripper3)
Adding (at ball16 room16)
Adding (free robot3 lgripper3)

Checking next happening (time 13)
Deleting (at-robby robot1 room4)
Adding (at-robby robot1 room27)

Checking next happening (time 14)
Deleting (carry robot2 ball10 rgripper2)
Adding (at ball10 room11)
Adding (free robot2 rgripper2)

Checking next happening (time 15)
Deleting (at-robby robot3 room16)
Adding (at-robby robot3 room8)

Checking next happening (time 16)
Deleting (carry robot1 ball2 lgripper1)
Adding (at ball2 room27)
Adding (free robot1 lgripper1)

Checking next happening (time 17)
Deleting (at ball5 room11)
Deleting (free robot2 lgripper2)
Adding (carry robot2 ball5 lgripper2)

Checking next happening (time 18)
Deleting (at-robby robot2 room11)
Adding (at-robby robot2 room21)

Checking next happening (time 19)
Deleting (at-robby robot1 room27)
Adding (at-robby robot1 room8)

Checking next happening (time 20)
Deleting (at-robby robot3 room8)
Adding (at-robby robot3 room25)

Checking next happening (time 21)
Deleting (carry robot2 ball5 lgripper2)
Adding (at ball5 room21)
Adding (free robot2 lgripper2)

Checking next happening (time 22)
Deleting (at ball19 room21)
Deleting (free robot2 rgripper2)
Adding (carry robot2 ball19 rgripper2)

Checking next happening (time 23)
Deleting (at ball22 room25)
Deleting (free robot3 lgripper3)
Adding (carry robot3 ball22 lgripper3)

Checking next happening (time 24)
Deleting (at-robby robot1 room8)
Adding (at-robby robot1 room24)

Checking next happening (time 25)
Deleting (at-robby robot2 room21)
Adding (at-robby robot2 room8)

Checking next happening (time 26)
Deleting (at-robby robot3 room25)
Adding (at-robby robot3 room14)

Checking next happening (time 27)
Deleting (at ball4 room24)
Deleting (free robot1 lgripper1)
Adding (carry robot1 ball4 lgripper1)

Checking next happening (time 28)
Deleting (carry robot2 ball19 rgripper2)
Adding (at ball19 room8)
Adding (free robot2 rgripper2)

Checking next happening (time 29)
Deleting (carry robot3 ball22 lgripper3)
Adding (at ball22 room14)
Adding (free robot3 lgripper3)

Checking next happening (time 30)
Deleting (at-robby robot1 room24)
Adding (at-robby robot1 room18)

Checking next happening (time 31)
Deleting (at-robby robot3 room14)
Adding (at-robby robot3 room8)

Checking next happening (time 32)
Deleting (at ball17 room18)
Deleting (free robot1 rgripper1)
Adding (carry robot1 ball17 rgripper1)

Checking next happening (time 33)
Deleting (at-robby robot2 room8)
Adding (at-robby robot2 room24)

Checking next happening (time 34)
Deleting (at-robby robot3 room8)
Adding (at-robby robot3 room6)

Checking next happening (time 35)
Deleting (at-robby robot1 room18)
Adding (at-robby robot1 room15)

Checking next happening (time 36)
Deleting (at ball18 room24)
Deleting (free robot2 lgripper2)
Adding (carry robot2 ball18 lgripper2)

Checking next happening (time 37)
Deleting (carry robot1 ball4 lgripper1)
Adding (at ball4 room15)
Adding (free robot1 lgripper1)

Checking next happening (time 38)
Deleting (carry robot1 ball17 rgripper1)
Adding (at ball17 room15)
Adding (free robot1 rgripper1)

Checking next happening (time 39)
Deleting (at-robby robot2 room24)
Adding (at-robby robot2 room25)

Checking next happening (time 40)
Deleting (at-robby robot3 room6)
Adding (at-robby robot3 room23)

Checking next happening (time 41)
Deleting (carry robot2 ball18 lgripper2)
Adding (at ball18 room25)
Adding (free robot2 lgripper2)

Checking next happening (time 42)
Deleting (at ball15 room15)
Deleting (free robot1 rgripper1)
Adding (carry robot1 ball15 rgripper1)

Checking next happening (time 43)
Deleting (at ball21 room23)
Deleting (free robot3 lgripper3)
Adding (carry robot3 ball21 lgripper3)

Checking next happening (time 44)
Deleting (at ball14 room23)
Deleting (free robot3 rgripper3)
Adding (carry robot3 ball14 rgripper3)

Checking next happening (time 45)
Deleting (at-robby robot1 room15)
Adding (at-robby robot1 room25)

Checking next happening (time 46)
Deleting (at-robby robot3 room23)
Adding (at-robby robot3 room13)

Checking next happening (time 47)
Deleting (at-robby robot2 room25)
Adding (at-robby robot2 room20)

Checking next happening (time 48)
Deleting (carry robot1 ball15 rgripper1)
Adding (at ball15 room25)
Adding (free robot1 rgripper1)

Checking next happening (time 49)
Deleting (at ball8 room20)
Deleting (free robot2 lgripper2)
Adding (carry robot2 ball8 lgripper2)

Checking next happening (time 50)
Deleting (carry robot3 ball21 lgripper3)
Adding (at ball21 room13)
Adding (free robot3 lgripper3)

Checking next happening (time 51)
Deleting (at-robby robot2 room20)
Adding (at-robby robot2 room25)

Checking next happening (time 52)
Deleting (at-robby robot3 room13)
Adding (at-robby robot3 room27)

Checking next happening (time 53)
Deleting (at-robby robot1 room25)
Adding (at-robby robot1 room24)

Checking next happening (time 54)
Deleting (carry robot2 ball8 lgripper2)
Adding (at ball8 room25)
Adding (free robot2 lgripper2)

Checking next happening (time 55)
Deleting (carry robot3 ball14 rgripper3)
Adding (at ball14 room27)
Adding (free robot3 rgripper3)

Checking next happening (time 56)
Deleting (at-robby robot1 room24)
Adding (at-robby robot1 room22)

Checking next happening (time 57)
Deleting (at-robby robot3 room27)
Adding (at-robby robot3 room8)

Checking next happening (time 58)
Deleting (at-robby robot2 room25)
Adding (at-robby robot2 room13)

Checking next happening (time 59)
Deleting (at-robby robot1 room22)
Adding (at-robby robot1 room19)

Checking next happening (time 60)
Deleting (at ball24 room13)
Deleting (free robot2 lgripper2)
Adding (carry robot2 ball24 lgripper2)

Checking next happening (time 61)
Deleting (at ball6 room19)
Deleting (free robot1 lgripper1)
Adding (carry robot1 ball6 lgripper1)

Checking next happening (time 62)
Deleting (at ball13 room19)
Deleting (free robot1 rgripper1)
Adding (carry robot1 ball13 rgripper1)

Checking next happening (time 63)
Deleting (at-robby robot3 room8)
Adding (at-robby robot3 room6)

Checking next happening (time 64)
Deleting (at-robby robot2 room13)
Adding (at-robby robot2 room10)

Checking next happening (time 65)
Deleting (at-robby robot1 room19)
Adding (at-robby robot1 room22)

Checking next happening (time 66)
Deleting (at-robby robot3 room6)
Adding (at-robby robot3 room19)

Checking next happening (time 67)
Deleting (carry robot2 ball24 lgripper2)
Adding (at ball24 room10)
Adding (free robot2 lgripper2)

Checking next happening (time 68)
Deleting (carry robot1 ball13 rgripper1)
Adding (at ball13 room22)
Adding (free robot1 rgripper1)

Checking next happening (time 69)
Deleting (at ball9 room10)
Deleting (free robot2 rgripper2)
Adding (carry robot2 ball9 rgripper2)

Checking next happening (time 70)
Deleting (at ball20 room19)
Deleting (free robot3 lgripper3)
Adding (carry robot3 ball20 lgripper3)

Checking next happening (time 71)
Deleting (at-robby robot2 room10)
Adding (at-robby robot2 room24)

Checking next happening (time 72)
Deleting (at-robby robot1 room22)
Adding (at-robby robot1 room2)

Checking next happening (time 73)
Deleting (at-robby robot3 room19)
Adding (at-robby robot3 room16)

Checking next happening (time 74)
Deleting (carry robot2 ball9 rgripper2)
Adding (at ball9 room24)
Adding (free robot2 rgripper2)

Checking next happening (time 75)
Deleting (carry robot1 ball6 lgripper1)
Adding (at ball6 room2)
Adding (free robot1 lgripper1)

Checking next happening (time 76)
Deleting (at-robby robot3 room16)
Adding (at-robby robot3 room11)

Checking next happening (time 77)
Deleting (carry robot3 ball20 lgripper3)
Adding (at ball20 room11)
Adding (free robot3 lgripper3)

Checking next happening (time 78)
Deleting (at ball25 room11)
Deleting (free robot3 rgripper3)
Adding (carry robot3 ball25 rgripper3)

Checking next happening (time 79)
Deleting (at-robby robot1 room2)
Adding (at-robby robot1 room8)

Checking next happening (time 80)
Deleting (at-robby robot2 room24)
Adding (at-robby robot2 room8)

Checking next happening (time 81)
Deleting (at-robby robot3 room11)
Adding (at-robby robot3 room8)

Checking next happening (time 82)
Deleting (at-robby robot1 room8)
Adding (at-robby robot1 room1)

Checking next happening (time 83)
Deleting (at-robby robot2 room8)
Adding (at-robby robot2 room15)

Checking next happening (time 84)
Deleting (carry robot3 ball25 rgripper3)
Adding (at ball25 room8)
Adding (free robot3 rgripper3)

Checking next happening (time 85)
Deleting (at ball12 room1)
Deleting (free robot1 lgripper1)
Adding (carry robot1 ball12 lgripper1)

Checking next happening (time 86)
Deleting (at ball1 room1)
Deleting (free robot1 rgripper1)
Adding (carry robot1 ball1 rgripper1)

Checking next happening (time 87)
Deleting (at ball11 room15)
Deleting (free robot2 lgripper2)
Adding (carry robot2 ball11 lgripper2)

Checking next happening (time 88)
Deleting (at-robby robot3 room8)
Adding (at-robby robot3 room15)

Checking next happening (time 89)
Deleting (at-robby robot1 room1)
Adding (at-robby robot1 room6)

Checking next happening (time 90)
Deleting (at-robby robot2 room15)
Adding (at-robby robot2 room8)

Checking next happening (time 91)
Deleting (carry robot1 ball1 rgripper1)
Adding (at ball1 room6)
Adding (free robot1 rgripper1)

Checking next happening (time 92)
Deleting (carry robot2 ball11 lgripper2)
Adding (at ball11 room8)
Adding (free robot2 lgripper2)

Checking next happening (time 93)
Deleting (at-robby robot3 room15)
Adding (at-robby robot3 room12)

Checking next happening (time 94)
Deleting (at-robby robot1 room6)
Adding (at-robby robot1 room16)

Checking next happening (time 95)
Deleting (at ball7 room12)
Deleting (free robot3 lgripper3)
Adding (carry robot3 ball7 lgripper3)

Checking next happening (time 96)
Deleting (at ball23 room12)
Deleting (free robot3 rgripper3)
Adding (carry robot3 ball23 rgripper3)

Checking next happening (time 97)
Deleting (carry robot1 ball12 lgripper1)
Adding (at ball12 room16)
Adding (free robot1 lgripper1)

Checking next happening (time 98)
Deleting (at-robby robot3 room12)
Adding (at-robby robot3 room15)

Checking next happening (time 99)
Deleting (carry robot3 ball7 lgripper3)
Adding (at ball7 room15)
Adding (free robot3 lgripper3)

Checking next happening (time 100)
Deleting (at-robby robot3 room15)
Adding (at-robby robot3 room1)

Checking next happening (time 101)
Deleting (carry robot3 ball23 rgripper3)
Adding (at ball23 room1)
Adding (free robot3 rgripper3)
Plan executed successfully - checking goal
Plan valid
Final value: 101 

Successful plans:
Value: 101
 /home/jfan5/Safety-gen/runs/benchmark/optic/grippers_20260205_142606/grippers/optic_results/grippers-n3-r27-o25-s25001.plan 101
